\ Model gr4x6_variant3
\ LP format - for model browsing. Use MPS format to capture full model detail.
Minimize
  9.31 X[0] + 14.84 X[1] + 18.14 X[2] + 6.1 X[3] + 18.09 X[4] + 16.47 X[5]
   + 11.1 X[6] + 8.33 X[7] + 20.36 X[8] + 11.05 X[9] + 7.39 X[10]
   + 7.45 X[11] + 18.71 X[12] + 15.06 X[13] + 18.11 X[14] + 16.95 X[15]
   + 14.04 X[16] + 20.6 X[17] + 11.68 X[18] + 14.28 X[19] + 18.44 X[20]
   + 15.28 X[21] + 18.93 X[22] + 14.66 X[23] + 16.57 X[24] + 6.69 X[25]
   + 9.42 X[26] + 10.34 X[27] + 7.2 X[28] + 9.49 X[29] + 7.52 X[30]
   + 10.17 X[31] + 15.54 X[32] + 11.47 X[33] + 11.55 X[34] + 9.14 X[35]
   + 10 X[36] + 20.05 X[37] + 15.72 X[38] + 15.14 X[39] + 8.57 X[40]
   + 16.94 X[41] + 8.45 X[42] + 11.69 X[43] + 20.84 X[44] + 15.6 X[45]
   + 14.35 X[46] + 16.27 X[47] + 18.64 X[48] + 17.64 X[49] + 9.44 X[50]
   + 6.48 X[51] + 10.73 X[52] + 10.02 X[53] + 9.16 X[54] + 20.14 X[55]
   + 19.15 X[56] + 10.72 X[57] + 15.83 X[58] + 11.93 X[59] + 466.82 Y[0]
   + 284.54 Y[1] + 206.95 Y[2] + 199.65 Y[3] + 325.55 Y[4] + 206.1 Y[5]
   + 334.83 Y[6] + 460.13 Y[7] + 260.76 Y[8] + 188.73 Y[9] + 500.02 Y[10]
   + 304.81 Y[11] + 137.36 Y[12] + 119.85 Y[13] + 144.86 Y[14]
   + 351.98 Y[15] + 417.83 Y[16] + 269.86 Y[17] + 126.41 Y[18]
   + 253.65 Y[19] + 499.45 Y[20] + 312.65 Y[21] + 489.43 Y[22]
   + 445.31 Y[23] + 105.59 Y[24] + 389.29 Y[25] + 373.68 Y[26]
   + 315.79 Y[27] + 207.73 Y[28] + 357.38 Y[29] + 145.62 Y[30]
   + 274.91 Y[31] + 282.49 Y[32] + 482.53 Y[33] + 451.34 Y[34]
   + 206.36 Y[35] + 301.23 Y[36] + 172.46 Y[37] + 466.05 Y[38]
   + 449.21 Y[39] + 220.38 Y[40] + 356.58 Y[41] + 344.59 Y[42]
   + 162.14 Y[43] + 406 Y[44] + 316.75 Y[45] + 412.45 Y[46] + 313.14 Y[47]
   + 101.23 Y[48] + 230.66 Y[49] + 108.79 Y[50] + 472.64 Y[51]
   + 452.49 Y[52] + 433.67 Y[53] + 224.01 Y[54] + 124.17 Y[55]
   + 452.2 Y[56] + 479.78 Y[57] + 135.26 Y[58] + 295.4 Y[59]
Subject To
 A0: X[0] + X[1] + X[2] + X[3] + X[4] + X[5] = 1
 A1: X[6] + X[7] + X[8] + X[9] + X[10] + X[11] = 1
 A2: X[12] + X[13] + X[14] + X[15] + X[16] + X[17] = 1
 A3: X[18] + X[19] + X[20] + X[21] + X[22] + X[23] = 1
 A4: X[24] + X[25] + X[26] + X[27] + X[28] + X[29] = 1
 A5: X[30] + X[31] + X[32] + X[33] + X[34] + X[35] = 1
 A6: X[36] + X[37] + X[38] + X[39] + X[40] + X[41] = 1
 A7: X[42] + X[43] + X[44] + X[45] + X[46] + X[47] = 1
 A8: X[48] + X[49] + X[50] + X[51] + X[52] + X[53] = 1
 A9: X[54] + X[55] + X[56] + X[57] + X[58] + X[59] = 1
 B0: X[0] + X[6] + X[12] + X[18] + X[24] + X[30] + X[36] + X[42] + X[48]
   + X[54] = 1.666666666666667
 B1: X[1] + X[7] + X[13] + X[19] + X[25] + X[31] + X[37] + X[43] + X[49]
   + X[55] = 1.666666666666667
 B2: X[2] + X[8] + X[14] + X[20] + X[26] + X[32] + X[38] + X[44] + X[50]
   + X[56] = 1.666666666666667
 B3: X[3] + X[9] + X[15] + X[21] + X[27] + X[33] + X[39] + X[45] + X[51]
   + X[57] = 1.666666666666667
 B4: X[4] + X[10] + X[16] + X[22] + X[28] + X[34] + X[40] + X[46] + X[52]
   + X[58] = 1.666666666666667
 B5: X[5] + X[11] + X[17] + X[23] + X[29] + X[35] + X[41] + X[47] + X[53]
   + X[59] = 1.666666666666667
 G0: X[0] - 1e+06 Y[0] <= 0
 G1: X[1] - 1e+06 Y[1] <= 0
 G2: X[2] - 1e+06 Y[2] <= 0
 G3: X[3] - 1e+06 Y[3] <= 0
 G4: X[4] - 1e+06 Y[4] <= 0
 G5: X[5] - 1e+06 Y[5] <= 0
 G6: X[6] - 1e+06 Y[6] <= 0
 G7: X[7] - 1e+06 Y[7] <= 0
 G8: X[8] - 1e+06 Y[8] <= 0
 G9: X[9] - 1e+06 Y[9] <= 0
 G10: X[10] - 1e+06 Y[10] <= 0
 G11: X[11] - 1e+06 Y[11] <= 0
 G12: X[12] - 1e+06 Y[12] <= 0
 G13: X[13] - 1e+06 Y[13] <= 0
 G14: X[14] - 1e+06 Y[14] <= 0
 G15: X[15] - 1e+06 Y[15] <= 0
 G16: X[16] - 1e+06 Y[16] <= 0
 G17: X[17] - 1e+06 Y[17] <= 0
 G18: X[18] - 1e+06 Y[18] <= 0
 G19: X[19] - 1e+06 Y[19] <= 0
 G20: X[20] - 1e+06 Y[20] <= 0
 G21: X[21] - 1e+06 Y[21] <= 0
 G22: X[22] - 1e+06 Y[22] <= 0
 G23: X[23] - 1e+06 Y[23] <= 0
 G24: X[24] - 1e+06 Y[24] <= 0
 G25: X[25] - 1e+06 Y[25] <= 0
 G26: X[26] - 1e+06 Y[26] <= 0
 G27: X[27] - 1e+06 Y[27] <= 0
 G28: X[28] - 1e+06 Y[28] <= 0
 G29: X[29] - 1e+06 Y[29] <= 0
 G30: X[30] - 1e+06 Y[30] <= 0
 G31: X[31] - 1e+06 Y[31] <= 0
 G32: X[32] - 1e+06 Y[32] <= 0
 G33: X[33] - 1e+06 Y[33] <= 0
 G34: X[34] - 1e+06 Y[34] <= 0
 G35: X[35] - 1e+06 Y[35] <= 0
 G36: X[36] - 1e+06 Y[36] <= 0
 G37: X[37] - 1e+06 Y[37] <= 0
 G38: X[38] - 1e+06 Y[38] <= 0
 G39: X[39] - 1e+06 Y[39] <= 0
 G40: X[40] - 1e+06 Y[40] <= 0
 G41: X[41] - 1e+06 Y[41] <= 0
 G42: X[42] - 1e+06 Y[42] <= 0
 G43: X[43] - 1e+06 Y[43] <= 0
 G44: X[44] - 1e+06 Y[44] <= 0
 G45: X[45] - 1e+06 Y[45] <= 0
 G46: X[46] - 1e+06 Y[46] <= 0
 G47: X[47] - 1e+06 Y[47] <= 0
 G48: X[48] - 1e+06 Y[48] <= 0
 G49: X[49] - 1e+06 Y[49] <= 0
 G50: X[50] - 1e+06 Y[50] <= 0
 G51: X[51] - 1e+06 Y[51] <= 0
 G52: X[52] - 1e+06 Y[52] <= 0
 G53: X[53] - 1e+06 Y[53] <= 0
 G54: X[54] - 1e+06 Y[54] <= 0
 G55: X[55] - 1e+06 Y[55] <= 0
 G56: X[56] - 1e+06 Y[56] <= 0
 G57: X[57] - 1e+06 Y[57] <= 0
 G58: X[58] - 1e+06 Y[58] <= 0
 G59: X[59] - 1e+06 Y[59] <= 0
 C0: Y[0] + Y[6] + Y[12] + Y[18] + Y[24] + Y[30] + Y[36] + Y[42] + Y[48]
   + Y[54] <= 1e+06
 C1: Y[1] + Y[7] + Y[13] + Y[19] + Y[25] + Y[31] + Y[37] + Y[43] + Y[49]
   + Y[55] <= 1e+06
 C2: Y[2] + Y[8] + Y[14] + Y[20] + Y[26] + Y[32] + Y[38] + Y[44] + Y[50]
   + Y[56] <= 1e+06
 C3: Y[3] + Y[9] + Y[15] + Y[21] + Y[27] + Y[33] + Y[39] + Y[45] + Y[51]
   + Y[57] <= 1e+06
 C4: Y[4] + Y[10] + Y[16] + Y[22] + Y[28] + Y[34] + Y[40] + Y[46] + Y[52]
   + Y[58] <= 1e+06
 C5: Y[5] + Y[11] + Y[17] + Y[23] + Y[29] + Y[35] + Y[41] + Y[47] + Y[53]
   + Y[59] <= 1e+06
Bounds
 X[0] <= 1e+06
 X[1] <= 1e+06
 X[2] <= 1e+06
 X[3] <= 1e+06
 X[4] <= 1e+06
 X[5] <= 1e+06
 X[6] <= 1e+06
 X[7] <= 1e+06
 X[8] <= 1e+06
 X[9] <= 1e+06
 X[10] <= 1e+06
 X[11] <= 1e+06
 X[12] <= 1e+06
 X[13] <= 1e+06
 X[14] <= 1e+06
 X[15] <= 1e+06
 X[16] <= 1e+06
 X[17] <= 1e+06
 X[18] <= 1e+06
 X[19] <= 1e+06
 X[20] <= 1e+06
 X[21] <= 1e+06
 X[22] <= 1e+06
 X[23] <= 1e+06
 X[24] <= 1e+06
 X[25] <= 1e+06
 X[26] <= 1e+06
 X[27] <= 1e+06
 X[28] <= 1e+06
 X[29] <= 1e+06
 X[30] <= 1e+06
 X[31] <= 1e+06
 X[32] <= 1e+06
 X[33] <= 1e+06
 X[34] <= 1e+06
 X[35] <= 1e+06
 X[36] <= 1e+06
 X[37] <= 1e+06
 X[38] <= 1e+06
 X[39] <= 1e+06
 X[40] <= 1e+06
 X[41] <= 1e+06
 X[42] <= 1e+06
 X[43] <= 1e+06
 X[44] <= 1e+06
 X[45] <= 1e+06
 X[46] <= 1e+06
 X[47] <= 1e+06
 X[48] <= 1e+06
 X[49] <= 1e+06
 X[50] <= 1e+06
 X[51] <= 1e+06
 X[52] <= 1e+06
 X[53] <= 1e+06
 X[54] <= 1e+06
 X[55] <= 1e+06
 X[56] <= 1e+06
 X[57] <= 1e+06
 X[58] <= 1e+06
 X[59] <= 1e+06
Binaries
 Y[0] Y[1] Y[2] Y[3] Y[4] Y[5] Y[6] Y[7] Y[8] Y[9] Y[10] Y[11] Y[12] Y[13]
 Y[14] Y[15] Y[16] Y[17] Y[18] Y[19] Y[20] Y[21] Y[22] Y[23] Y[24] Y[25]
 Y[26] Y[27] Y[28] Y[29] Y[30] Y[31] Y[32] Y[33] Y[34] Y[35] Y[36] Y[37]
 Y[38] Y[39] Y[40] Y[41] Y[42] Y[43] Y[44] Y[45] Y[46] Y[47] Y[48] Y[49]
 Y[50] Y[51] Y[52] Y[53] Y[54] Y[55] Y[56] Y[57] Y[58] Y[59]
End
